(declare-fun e () String)
(declare-fun c () String)
(declare-fun g () String)
(declare-fun b () String)
(declare-fun d () String)
(declare-fun f () String)
(declare-fun a () String)
(declare-fun h () String)
(assert (= (str.++ g d c) (str.++ h "b" h g b)))
(assert (= (str.++ "eeb" c f) (str.++ a "c" e)))
(assert (= b "d"))

(check-sat)
